db/inputs/767644132798212123287871952657529907.smt2
(set-logic QF_FP)
(declare-const x0 (_ FloatingPoint 11 53))
(declare-const x1 (_ FloatingPoint 11 53))
(declare-const x2 (_ FloatingPoint 11 53))
(declare-const x3 (_ FloatingPoint 11 53))
(declare-const x4 (_ FloatingPoint 11 53))
(declare-const x5 (_ FloatingPoint 11 53))
(declare-const x6 (_ FloatingPoint 11 53))
(declare-const x7 (_ FloatingPoint 11 53))
(declare-const x8 (_ FloatingPoint 11 53))
(declare-const x9 (_ FloatingPoint 11 53))
(declare-const x10 (_ FloatingPoint 11 53))
(declare-const x11 (_ FloatingPoint 11 53))
(declare-const x12 (_ FloatingPoint 11 53))
(declare-const x13 (_ FloatingPoint 11 53))
(declare-const x14 (_ FloatingPoint 11 53))
(declare-const x15 (_ FloatingPoint 11 53))
(assert (fp.gt (fp.div RNE (fp.add RNE (fp.div RNE x4 x11) (fp.neg x14)) (fp.neg (fp.sub RNE x5 x14))) (fp.mul RNE (fp.neg (fp.sub RNE x6 x8)) (fp.neg (fp.neg x0)))))
(assert (fp.leq (fp.add RNE (fp.add RNE (fp.neg x1) (fp.div RNE x1 x7)) (fp.add RNE (fp.sub RNE x12 x14) (fp.div RNE x10 x1))) (fp.div RNE (fp.mul RNE (fp.div RNE x13 x11) (fp.div RNE x0 x9)) (fp.sub RNE (fp.mul RNE x15 x1) (fp.neg x6)))))
(assert (fp.leq (fp.add RNE (fp.div RNE (fp.div RNE x13 x1) (fp.neg x6)) (fp.div RNE (fp.mul RNE x5 x7) (fp.mul RNE x1 x10))) (fp.div RNE (fp.mul RNE (fp.neg x10) (fp.div RNE x14 x7)) (fp.div RNE (fp.add RNE x10 x6) (fp.sub RNE x14 x8)))))
(assert (fp.leq (fp.sub RNE (fp.mul RNE (fp.sub RNE x5 x1) (fp.sub RNE x13 x0)) (fp.mul RNE (fp.sub RNE x2 x0) (fp.div RNE x8 x8))) (fp.neg (fp.div RNE (fp.neg x10) (fp.neg x12)))))
(assert (fp.eq (fp.mul RNE (fp.neg (fp.neg x5)) (fp.div RNE (fp.add RNE x7 x12) (fp.mul RNE x4 x2))) (fp.add RNE (fp.div RNE (fp.sub RNE x9 x14) (fp.neg x9)) (fp.div RNE (fp.div RNE x10 x13) (fp.add RNE x3 x6)))))
(assert (fp.lt (fp.div RNE (fp.div RNE (fp.add RNE x8 x9) (fp.neg x0)) (fp.div RNE (fp.sub RNE x12 x9) (fp.add RNE x11 x5))) (fp.add RNE (fp.neg (fp.mul RNE x4 x10)) (fp.div RNE (fp.add RNE x1 x5) (fp.div RNE x4 x12)))))
(assert (fp.leq (fp.mul RNE (fp.neg (fp.sub RNE x6 x9)) (fp.add RNE (fp.div RNE x0 x15) (fp.add RNE x6 x4))) (fp.mul RNE (fp.mul RNE (fp.div RNE x0 x5) (fp.neg x14)) (fp.sub RNE (fp.div RNE x4 x7) (fp.add RNE x11 x8)))))
(assert (fp.leq (fp.neg (fp.mul RNE (fp.div RNE x2 x15) (fp.div RNE x0 x3))) (fp.sub RNE (fp.mul RNE (fp.add RNE x7 x1) (fp.mul RNE x3 x6)) (fp.neg (fp.add RNE x0 x15)))))
(assert (fp.leq (fp.mul RNE (fp.sub RNE (fp.sub RNE x4 x9) (fp.mul RNE x1 x14)) (fp.mul RNE (fp.sub RNE x12 x13) (fp.mul RNE x9 x7))) (fp.mul RNE (fp.sub RNE (fp.mul RNE x0 x10) (fp.add RNE x3 x2)) (fp.mul RNE (fp.add RNE x2 x13) (fp.mul RNE x13 x3)))))
(assert (fp.leq (fp.div RNE (fp.add RNE (fp.add RNE x2 x0) (fp.div RNE x0 x7)) (fp.div RNE (fp.div RNE x10 x7) (fp.sub RNE x2 x0))) (fp.sub RNE (fp.sub RNE (fp.add RNE x14 x0) (fp.sub RNE x9 x12)) (fp.add RNE (fp.add RNE x13 x5) (fp.neg x7)))))
(assert (fp.eq (fp.neg (fp.div RNE (fp.sub RNE x11 x5) (fp.mul RNE x0 x2))) (fp.sub RNE (fp.mul RNE (fp.add RNE x6 x0) (fp.div RNE x11 x15)) (fp.add RNE (fp.div RNE x15 x6) (fp.sub RNE x13 x14)))))
(assert (fp.lt (fp.sub RNE (fp.div RNE (fp.div RNE x4 x4) (fp.neg x2)) (fp.mul RNE (fp.sub RNE x5 x5) (fp.add RNE x15 x6))) (fp.div RNE (fp.sub RNE (fp.sub RNE x7 x4) (fp.mul RNE x13 x4)) (fp.add RNE (fp.add RNE x9 x1) (fp.mul RNE x15 x7)))))
(assert (fp.lt (fp.div RNE (fp.neg (fp.neg x14)) (fp.sub RNE (fp.div RNE x2 x7) (fp.sub RNE x6 x3))) (fp.mul RNE (fp.neg (fp.add RNE x14 x12)) (fp.mul RNE (fp.neg x3) (fp.neg x15)))))
(assert (fp.eq (fp.div RNE (fp.div RNE (fp.div RNE x0 x4) (fp.mul RNE x7 x11)) (fp.sub RNE (fp.div RNE x11 x13) (fp.sub RNE x7 x11))) (fp.add RNE (fp.mul RNE (fp.mul RNE x12 x7) (fp.add RNE x8 x8)) (fp.sub RNE (fp.mul RNE x1 x13) (fp.mul RNE x10 x15)))))
(assert (fp.gt (fp.mul RNE (fp.neg (fp.div RNE x8 x6)) (fp.div RNE (fp.add RNE x7 x5) (fp.div RNE x6 x8))) (fp.mul RNE (fp.neg (fp.div RNE x6 x8)) (fp.div RNE (fp.add RNE x5 x9) (fp.mul RNE x9 x7)))))
(assert (fp.lt (fp.mul RNE (fp.neg (fp.add RNE x15 x15)) (fp.neg (fp.sub RNE x2 x11))) (fp.add RNE (fp.neg (fp.div RNE x2 x13)) (fp.sub RNE (fp.sub RNE x0 x8) (fp.mul RNE x1 x4)))))
(assert (fp.leq (fp.neg (fp.mul RNE (fp.sub RNE x0 x11) (fp.sub RNE x3 x8))) (fp.neg (fp.add RNE (fp.sub RNE x7 x14) (fp.neg x7)))))
(assert (fp.gt (fp.div RNE (fp.neg (fp.div RNE x6 x9)) (fp.mul RNE (fp.mul RNE x6 x4) (fp.neg x4))) (fp.add RNE (fp.add RNE (fp.add RNE x15 x6) (fp.sub RNE x6 x13)) (fp.add RNE (fp.mul RNE x12 x3) (fp.sub RNE x9 x6)))))
(assert (fp.geq (fp.neg (fp.neg (fp.mul RNE x15 x13))) (fp.sub RNE (fp.sub RNE (fp.add RNE x11 x9) (fp.add RNE x8 x9)) (fp.neg (fp.mul RNE x6 x8)))))
(assert (fp.gt (fp.div RNE (fp.mul RNE (fp.neg x11) (fp.mul RNE x4 x5)) (fp.div RNE (fp.sub RNE x12 x4) (fp.add RNE x12 x14))) (fp.add RNE (fp.sub RNE (fp.mul RNE x1 x13) (fp.mul RNE x7 x7)) (fp.neg (fp.add RNE x14 x11)))))
(check-sat)
