db/data/767644132798212123287871952657529907.z3.out
solvers/z3/run.sh: line 2: 391852 Killed                  z3 -smt2 $1
-------------------
99.982829966
